p edges 64 793
e 1 9
e 1 10
e 1 12
e 1 14
e 1 20
e 1 24
e 1 26
e 1 27
e 1 33
e 1 34
e 1 37
e 1 38
e 1 41
e 1 47
e 1 50
e 1 51
e 1 52
e 1 57
e 1 58
e 1 59
e 1 60
e 1 64
e 2 3
e 2 4
e 2 7
e 2 9
e 2 10
e 2 13
e 2 14
e 2 15
e 2 18
e 2 19
e 2 20
e 2 21
e 2 23
e 2 24
e 2 27
e 2 30
e 2 33
e 2 37
e 2 39
e 2 41
e 2 44
e 2 48
e 2 49
e 2 51
e 2 52
e 2 54
e 2 56
e 2 59
e 2 63
e 3 7
e 3 8
e 3 9
e 3 10
e 3 14
e 3 15
e 3 16
e 3 17
e 3 21
e 3 23
e 3 26
e 3 29
e 3 37
e 3 38
e 3 42
e 3 44
e 3 45
e 3 46
e 3 47
e 3 48
e 3 50
e 3 52
e 3 55
e 3 59
e 3 61
e 4 6
e 4 8
e 4 11
e 4 12
e 4 14
e 4 16
e 4 18
e 4 20
e 4 22
e 4 28
e 4 31
e 4 39
e 4 43
e 4 46
e 4 49
e 4 50
e 4 55
e 4 58
e 4 59
e 4 61
e 4 62
e 5 8
e 5 10
e 5 11
e 5 12
e 5 15
e 5 17
e 5 18
e 5 20
e 5 21
e 5 25
e 5 28
e 5 30
e 5 38
e 5 43
e 5 47
e 5 49
e 5 53
e 5 54
e 5 55
e 5 59
e 5 60
e 5 61
e 5 63
e 5 64
e 6 7
e 6 9
e 6 11
e 6 12
e 6 14
e 6 15
e 6 18
e 6 20
e 6 25
e 6 26
e 6 27
e 6 29
e 6 30
e 6 31
e 6 34
e 6 36
e 6 42
e 6 44
e 6 45
e 6 47
e 6 48
e 6 50
e 6 52
e 6 53
e 6 54
e 6 56
e 6 60
e 7 12
e 7 14
e 7 18
e 7 20
e 7 26
e 7 27
e 7 29
e 7 33
e 7 34
e 7 39
e 7 40
e 7 42
e 7 43
e 7 44
e 7 50
e 7 51
e 7 53
e 7 54
e 7 56
e 7 59
e 7 60
e 7 62
e 7 64
e 8 10
e 8 16
e 8 18
e 8 22
e 8 23
e 8 27
e 8 28
e 8 29
e 8 32
e 8 36
e 8 37
e 8 43
e 8 44
e 8 47
e 8 48
e 8 54
e 8 55
e 8 57
e 8 62
e 8 64
e 9 13
e 9 14
e 9 17
e 9 19
e 9 20
e 9 21
e 9 25
e 9 28
e 9 30
e 9 32
e 9 33
e 9 34
e 9 35
e 9 37
e 9 39
e 9 40
e 9 41
e 9 42
e 9 43
e 9 44
e 9 47
e 9 48
e 9 50
e 9 51
e 9 52
e 9 56
e 9 60
e 9 61
e 9 64
e 10 16
e 10 26
e 10 27
e 10 28
e 10 29
e 10 32
e 10 34
e 10 35
e 10 39
e 10 40
e 10 41
e 10 44
e 10 45
e 10 46
e 10 48
e 10 49
e 10 50
e 10 55
e 10 59
e 10 60
e 10 63
e 10 64
e 11 12
e 11 13
e 11 14
e 11 15
e 11 16
e 11 17
e 11 20
e 11 22
e 11 23
e 11 26
e 11 32
e 11 33
e 11 36
e 11 42
e 11 47
e 11 48
e 11 49
e 11 52
e 11 55
e 11 58
e 11 63
e 11 64
e 12 14
e 12 17
e 12 18
e 12 19
e 12 21
e 12 23
e 12 25
e 12 26
e 12 27
e 12 28
e 12 31
e 12 33
e 12 35
e 12 39
e 12 50
e 12 56
e 12 57
e 12 60
e 12 62
e 12 64
e 13 15
e 13 22
e 13 24
e 13 25
e 13 26
e 13 31
e 13 32
e 13 38
e 13 39
e 13 43
e 13 44
e 13 46
e 13 52
e 13 53
e 13 55
e 13 56
e 13 57
e 13 59
e 13 61
e 13 62
e 14 15
e 14 18
e 14 22
e 14 27
e 14 30
e 14 31
e 14 33
e 14 39
e 14 43
e 14 45
e 14 46
e 14 47
e 14 51
e 14 53
e 14 63
e 15 16
e 15 22
e 15 23
e 15 24
e 15 25
e 15 26
e 15 29
e 15 32
e 15 33
e 15 34
e 15 36
e 15 44
e 15 45
e 15 48
e 15 49
e 15 57
e 15 58
e 15 60
e 15 61
e 15 63
e 16 18
e 16 22
e 16 27
e 16 28
e 16 29
e 16 32
e 16 33
e 16 35
e 16 36
e 16 38
e 16 40
e 16 43
e 16 45
e 16 49
e 16 50
e 16 51
e 16 56
e 16 58
e 16 60
e 16 62
e 16 64
e 17 35
e 17 44
e 17 48
e 17 20
e 17 21
e 17 54
e 17 57
e 17 37
e 17 27
e 17 60
e 17 59
e 17 31
e 18 21
e 18 22
e 18 24
e 18 26
e 18 33
e 18 34
e 18 38
e 18 40
e 18 41
e 18 50
e 18 52
e 18 54
e 18 55
e 18 57
e 18 62
e 18 63
e 18 64
e 19 22
e 19 23
e 19 25
e 19 27
e 19 31
e 19 32
e 19 33
e 19 35
e 19 38
e 19 40
e 19 44
e 19 45
e 19 46
e 19 47
e 19 48
e 19 50
e 19 53
e 19 56
e 19 63
e 20 21
e 20 22
e 20 24
e 20 27
e 20 30
e 20 32
e 20 36
e 20 38
e 20 40
e 20 42
e 20 44
e 20 46
e 20 52
e 20 54
e 20 57
e 20 59
e 20 60
e 20 62
e 21 22
e 21 23
e 21 32
e 21 34
e 21 35
e 21 36
e 21 40
e 21 42
e 21 47
e 21 50
e 21 51
e 21 53
e 21 56
e 21 63
e 21 64
e 22 24
e 22 25
e 22 26
e 22 27
e 22 29
e 22 30
e 22 34
e 22 40
e 22 41
e 22 42
e 22 43
e 22 44
e 22 46
e 22 49
e 22 50
e 22 52
e 22 53
e 22 54
e 22 55
e 22 60
e 22 62
e 23 37
e 23 38
e 23 45
e 23 35
e 23 55
e 23 58
e 23 25
e 23 40
e 23 43
e 23 64
e 24 25
e 24 26
e 24 28
e 24 29
e 24 30
e 24 32
e 24 34
e 24 35
e 24 38
e 24 41
e 24 43
e 24 44
e 24 46
e 24 50
e 24 52
e 24 53
e 24 54
e 24 56
e 24 58
e 24 63
e 25 26
e 25 35
e 25 36
e 25 37
e 25 38
e 25 39
e 25 40
e 25 41
e 25 46
e 25 53
e 25 55
e 25 58
e 25 60
e 25 61
e 25 64
e 26 27
e 26 29
e 26 33
e 26 34
e 26 37
e 26 39
e 26 42
e 26 44
e 26 46
e 26 53
e 26 58
e 26 59
e 26 60
e 26 61
e 26 62
e 26 64
e 27 29
e 27 30
e 27 31
e 27 32
e 27 34
e 27 38
e 27 39
e 27 42
e 27 45
e 27 46
e 27 48
e 27 53
e 27 54
e 27 58
e 27 60
e 27 62
e 28 30
e 28 31
e 28 33
e 28 36
e 28 37
e 28 40
e 28 41
e 28 45
e 28 46
e 28 47
e 28 48
e 28 49
e 28 54
e 28 55
e 28 56
e 28 57
e 28 60
e 29 31
e 29 33
e 29 38
e 29 42
e 29 46
e 29 48
e 29 50
e 29 52
e 29 59
e 29 61
e 29 62
e 29 63
e 29 64
e 30 31
e 30 32
e 30 33
e 30 44
e 30 45
e 30 46
e 30 47
e 30 48
e 30 50
e 30 52
e 30 54
e 30 61
e 30 64
e 31 33
e 31 35
e 31 39
e 31 42
e 31 61
e 31 50
e 31 56
e 31 57
e 31 62
e 32 34
e 32 39
e 32 41
e 32 44
e 32 47
e 32 49
e 32 51
e 32 55
e 32 56
e 32 59
e 32 61
e 32 64
e 33 34
e 33 35
e 33 39
e 33 43
e 33 44
e 33 46
e 33 47
e 33 49
e 33 51
e 33 58
e 33 61
e 33 63
e 34 35
e 34 36
e 34 45
e 34 58
e 34 61
e 34 62
e 34 63
e 34 64
e 35 36
e 35 47
e 35 48
e 36 39
e 36 45
e 36 46
e 36 49
e 36 50
e 36 51
e 36 52
e 36 58
e 36 59
e 36 61
e 36 62
e 37 39
e 37 40
e 37 41
e 37 45
e 37 46
e 37 47
e 37 48
e 37 51
e 37 52
e 37 55
e 37 56
e 37 57
e 37 60
e 37 62
e 37 63
e 37 64
e 38 52
e 38 50
e 38 42
e 38 49
e 38 60
e 38 62
e 39 40
e 39 47
e 39 51
e 39 52
e 39 55
e 39 57
e 39 58
e 39 59
e 39 60
e 39 61
e 39 64
e 40 41
e 40 42
e 40 43
e 40 44
e 40 48
e 40 50
e 40 51
e 40 52
e 40 55
e 40 56
e 40 57
e 40 59
e 40 60
e 40 62
e 41 60
e 41 47
e 41 48
e 41 51
e 41 52
e 41 58
e 41 61
e 41 54
e 42 52
e 42 63
e 42 45
e 42 49
e 42 54
e 42 64
e 42 43
e 43 44
e 43 48
e 43 50
e 43 53
e 43 54
e 43 56
e 43 58
e 43 61
e 43 62
e 43 63
e 44 46
e 44 47
e 44 48
e 44 52
e 44 53
e 44 54
e 44 56
e 44 58
e 44 63
e 44 64
e 45 47
e 45 48
e 45 49
e 45 55
e 45 57
e 45 61
e 45 62
e 45 63
e 46 47
e 46 49
e 46 57
e 46 60
e 46 63
e 47 48
e 47 49
e 47 54
e 47 55
e 47 57
e 47 59
e 47 62
e 48 50
e 48 52
e 48 54
e 48 56
e 48 59
e 48 60
e 48 61
e 48 63
e 49 50
e 49 51
e 49 53
e 49 57
e 49 60
e 49 62
e 50 52
e 50 58
e 51 53
e 51 54
e 51 55
e 51 56
e 51 58
e 51 59
e 51 60
e 51 61
e 51 63
e 52 53
e 52 58
e 52 59
e 52 61
e 52 63
e 53 54
e 53 57
e 53 58
e 53 60
e 53 61
e 53 62
e 53 63
e 55 56
e 55 61
e 55 62
e 55 64
e 56 58
e 56 60
e 56 61
e 56 63
e 57 59
e 57 62
e 58 64
e 59 60
e 59 63
e 60 64
e 61 62
e 61 63
e 63 64
